1 0
2 0
3 0
4 0
5 0
6 0
7 0
8 0
9 0
10 0
11 0
12 0
13 0
14 0
15 0
16 0
17 0
18 0
19 0
20 0
21 0
22 0
23 0
24 0
25 0
26 0
27 0
28 0
29 0
30 0
31 0
32 0
33 0
34 0
35 0
36 0
37 0
38 0
39 0
40 0
41 0
42 0
43 0
44 0
45 0
46 0
47 0
48 0
49 0
50 0
51 0
52 0
53 0
54 0
55 0
56 0
57 0
58 0
59 0
60 0
61 0
62 0
63 0
64 0
65 0
66 0
67 0
68 0
69 0
70 0
71 0
72 0
73 0
74 0
75 0
76 0
77 0
78 0
79 0
80 0
81 0
82 0
83 0
84 0
85 0
86 0
87 0
88 0
89 0
90 0
91 0
92 0
93 0
94 0
95 0
96 0
97 0
98 0
99 0
100 0
101 0
102 0
103 0
104 0
105 0
106 0
107 0
108 0
109 0
110 0
111 0
112 0
113 0
114 0
115 0
116 0
117 0
118 0
119 0
120 0
121 0
122 0
123 0
124 0
125 0
126 0
127 0
128 0
129 0
130 0
131 0
132 0
133 0
134 0
135 0
136 0
137 0
138 0
139 0
140 0
141 0
142 0
143 0
144 0
145 0
146 0
147 0
148 0
149 0
150 0
151 0
152 0
153 0
154 0
155 0
156 0
157 0
158 0
159 0
160 0
161 0
162 0
163 0
164 0
165 0
166 0
167 0
168 0
169 0
170 0
171 0
172 0
173 0
174 0
175 0
176 0
177 0
178 0
179 0
180 0
181 0
182 0
183 0
184 0
185 0
186 0
187 0
188 0
189 0
190 0
191 0
192 0
193 0
194 0
195 0
196 0
197 0
198 0
199 0
200 0
201 0
202 0
203 0
204 0
205 0
206 0
207 0
208 0
209 0
210 0
211 0
212 0
213 0
214 0
215 0
216 0
217 0
218 0
219 0
220 0
221 0
222 0
223 0
224 0
225 0
226 0
227 0
228 0
229 0
230 0
231 0
232 0
233 0
234 0
235 0
236 0
237 0
238 0
239 0
240 0
241 0
242 0
243 0
244 0
245 0
246 0
247 0
248 0
249 0
250 0
251 0
252 0
253 0
254 0
255 0
256 0
257 0
258 0
259 0
260 0
261 0
262 0
265 0
266 0
267 0
268 0
269 0
270 0
271 0
272 0
273 0
274 0
275 0
276 0
277 0
278 0
279 0
280 0
281 0
282 0
283 0
284 0
285 0
286 0
287 0
288 0
289 0
290 0
291 0
293 0
294 0
295 0
296 0
297 0
298 0
299 0
300 0
301 0
302 0
303 0
304 0
306 0
309 0
310 0
312 0
313 0
314 0
315 0
316 0
317 0
318 0
319 0
320 0
321 0
322 0
323 0
324 0
325 0
327 0
328 0
329 0
330 0
331 0
332 0
333 0
334 0
335 0
336 0
337 0
341 0
342 0
345 0
347 0
348 0
349 0
351 0
353 0
354 0
355 0
356 0
357 0
358 0
359 0
360 0
361 0
362 0
363 0
366 0
367 0
368 0
369 0
370 0
371 0
372 0
373 0
374 0
375 0
378 0
379 0
380 0
382 0
383 0
384 0
385 0
386 0
387 0
388 0
389 0
390 0
391 0
392 0
393 0
394 0
395 0
396 0
398 0
399 0
400 0
401 0
402 0
403 0
404 0
405 0
406 0
407 0
408 0
410 0
411 0
412 0
413 0
414 0
415 0
419 0
420 0
421 0
422 0
424 0
427 0
428 0
429 0
430 0
432 0
433 0
434 0
435 0
436 0
437 0
438 0
441 0
445 0
446 0
448 0
449 0
450 0
451 0
452 0
453 0
454 0
455 0
456 0
457 0
458 0
459 0
460 0
461 0
462 0
463 0
464 0
465 0
468 0
469 0
470 0
471 0
472 0
473 0
474 0
477 0
478 0
479 0
484 0
486 0
489 0
490 0
491 0
492 0
493 0
495 0
496 0
497 0
498 0
501 0
502 0
503 0
504 0
506 0
507 0
508 0
509 0
510 0
512 0
514 0
515 0
516 0
517 0
519 0
520 0
521 0
522 0
523 0
525 0
526 0
527 0
528 0
529 0
530 0
533 0
534 0
535 0
536 0
537 0
539 0
543 0
544 0
547 0
551 0
552 0
553 0
555 0
556 0
557 0
558 0
559 0
560 0
566 0
567 0
569 0
570 0
571 0
573 0
575 0
577 0
578 0
579 0
580 0
581 0
582 0
583 0
584 0
585 0
586 0
587 0
588 0
589 0
590 0
592 0
595 0
596 0
597 0
599 0
600 0
601 0
603 0
604 0
605 0
606 0
607 0
608 0
610 0
614 0
615 0
618 0
620 0
622 0
623 0
626 0
628 0
629 0
631 0
633 0
636 0
641 0
642 0
645 0
646 0
647 0
648 0
650 0
652 0
653 0
654 0
656 0
657 0
658 0
661 0
662 0
663 0
665 0
669 0
673 0
674 0
677 0
678 0
679 0
680 0
682 0
683 0
686 0
687 0
689 0
691 0
692 0
693 0
694 0
699 0
700 0
705 0
707 0
708 0
710 0
712 0
713 0
715 0
716 0
717 0
718 0
719 0
720 0
721 0
722 0
729 0
731 0
732 0
733 0
734 0
736 0
738 0
739 0
741 0
742 0
743 0
745 0
746 0
747 0
749 0
751 0
755 0
757 0
761 0
764 0
765 0
767 0
768 0
770 0
772 0
775 0
780 0
781 0
783 0
784 0
789 0
791 0
794 0
795 0
799 0
801 0
802 0
805 0
810 0
811 0
812 0
813 0
814 0
815 0
818 0
820 0
822 0
823 0
825 0
832 0
833 0
834 0
835 0
836 0
838 0
839 0
841 0
842 0
843 0
844 0
847 0
849 0
851 0
853 0
855 0
856 0
858 0
860 0
861 0
862 0
863 0
867 0
869 0
871 0
872 0
873 0
874 0
875 0
876 0
877 0
878 0
880 0
884 0
885 0
888 0
890 0
893 0
894 0
896 0
900 0
903 0
904 0
905 0
909 0
911 0
912 0
918 0
920 0
921 0
922 0
923 0
928 0
930 0
933 0
934 0
938 0
939 0
941 0
942 0
945 0
946 0
951 0
953 0
956 0
957 0
960 0
963 0
969 0
971 0
973 0
977 0
979 0
980 0
983 0
988 0
991 0
993 0
996 0
997 0
1001 0
1002 0
1007 0
1009 0
1011 0
1014 0
1015 0
1017 0
1024 0
1025 0
1030 0
1032 0
1036 0
1039 0
1044 0
1045 0
1058 0
1068 0
1071 0
1074 0
1075 0
1076 0
1078 0
1084 0
1085 0
1086 0
1090 0
1098 0
1102 0
1104 0
1108 0
1113 0
1115 0
1119 0
1128 0
1131 0
1135 0
1148 0
1154 0
1157 0
1158 0
1159 0
1160 0
1161 0
1165 0
1171 0
1176 0
1178 0
1179 0
1181 0
1190 0
1195 0
1199 0
1203 0
1206 0
1208 0
1210 0
1214 0
1225 0
1226 0
1235 0
1236 0
1240 0
1241 0
1243 0
1246 0
1252 0
1257 0
1258 0
1264 0
1269 0
1276 0
1295 0
1298 0
1307 0
1308 0
1317 0
1318 0
1326 0
1334 0
1339 0
1345 0
1348 0
1353 0
1356 0
1360 0
1361 0
1362 0
1372 0
1373 0
1375 0
1380 0
1391 0
1392 0
1394 0
1398 0
1412 0
1415 0
1433 0
1440 0
1445 0
1446 0
1453 0
1456 0
1457 0
1458 0
1462 0
1463 0
1477 0
1478 0
1488 0
1489 0
1498 0
1509 0
1512 0
1515 0
1524 0
1531 0
1542 0
1548 0
1551 0
1568 0
1569 0
1570 0
1572 0
1573 0
1583 0
1584 0
1590 0
1591 0
1599 0
1601 0
1606 0
1614 0
1618 0
1623 0
1628 0
1637 0
1642 0
1644 0
1656 0
1672 0
1679 0
1684 0
1685 0
1689 0
1705 0
1708 0
1710 0
1711 0
1717 0
1718 0
1726 0
1742 0
1747 0
1748 0
1757 0
1758 0
1760 0
1761 0
1762 0
1764 0
1765 0
1770 0
1772 0
1776 0
1786 0
1794 0
1803 0
1805 0
1812 0
1816 0
1823 0
1831 0
1832 0
1839 0
1841 0
1843 0
1845 0
1850 0
1860 0
1865 0
1871 0
1877 0
1878 0
1881 0
1885 0
1887 0
1901 0
1911 0
1915 0
1927 0
1941 0
1953 0
1959 0
1972 0
1975 0
1977 0
1978 0
1986 0
2004 0
2006 0
2010 0
2018 0
2027 0
2050 0
2056 0
2060 0
2063 0
2064 0
2077 0
2078 0
2087 0
2099 0
2105 0
2109 0
2110 0
2111 0
2129 0
2136 0
2138 0
2144 0
2145 0
2157 0
2169 0
2205 0
2210 0
2218 0
2235 0
2236 0
2246 0
2253 0
2260 0
2262 0
2267 0
2270 0
2280 0
2286 0
2288 0
2294 0
2297 0
2320 0
2326 0
2328 0
2352 0
2355 0
2360 0
2378 0
2390 0
2406 0
2416 0
2435 0
2444 0
2458 0
2465 0
2473 0
2477 0
2488 0
2495 0
2500 0
2502 0
2506 0
2532 0
2538 0
2539 0
2552 0
2565 0
2585 0
2602 0
2613 0
2619 0
2628 0
2644 0
2652 0
2654 0
2677 0
2678 0
2689 0
2700 0
2705 0
2716 0
2750 0
2766 0
2776 0
2786 0
2796 0
2821 0
2825 0
2828 0
2831 0
2835 0
2843 0
2846 0
2847 0
2853 0
2873 0
2920 0
2944 0
2945 0
2954 0
2959 0
3002 0
3028 0
3057 0
3065 0
3102 0
3129 0
3130 0
3131 0
3132 0
3142 0
3150 0
3170 0
3175 0
3177 0
3191 0
3232 0
3238 0
3248 0
3280 0
3293 0
3304 0
3307 0
3318 0
3335 0
3341 0
3342 0
3381 0
3397 0
3398 0
3461 0
3521 0
3544 0
3587 0
3592 0
3597 0
3605 0
3641 0
3646 0
3679 0
3687 0
3757 0
3761 0
3763 0
3799 0
3800 0
3807 0
3816 0
3843 0
3998 0
4012 0
4013 0
4040 0
4046 0
4054 0
4150 0
4153 0
4158 0
4234 0
4235 0
4250 0
4294 0
4310 0
4359 0
4375 0
4387 0
4388 0
4391 0
4402 0
4441 0
4445 0
4491 0
4516 0
4618 0
4657 0
4681 0
4691 0
4709 0
4735 0
4748 0
4756 0
4757 0
4850 0
4866 0
4900 0
4910 0
4932 0
5036 0
5040 0
5156 0
5177 0
5192 0
5206 0
5222 0
5255 0
5319 0
5353 0
5395 0
5410 0
5440 0
5445 0
5470 0
5488 0
5557 0
5628 0
5674 0
5682 0
5794 0
5817 0
5865 0
5913 0
5982 0
6043 0
6105 0
6121 0
6147 0
6288 0
6344 0
6426 0
6615 0
6689 0
6770 0
6831 0
6962 0
6966 0
7111 0
7155 0
7360 0
7382 0
7517 0
7704 0
7885 0
7990 0
8020 0
8080 0
8184 0
8210 0
8255 0
8552 0
8602 0
8609 0
8666 0
8687 0
8929 0
8996 0
9285 0
9357 0
9770 0
9778 0
9987 0
10024 0
10682 0
10764 0
10802 0
10930 0
11068 0
11100 0
11102 0
11154 0
11344 0
11469 0
11501 0
11526 0
12000 0
12046 0
12168 0
12520 0
13502 0
13559 0
13748 0
13821 0
14091 0
14111 0
14203 0
14304 0
14636 0
15231 0
16540 0
16907 0
17320 0
17999 0
18036 0
19097 0
19429 0
19488 0
19789 0
19849 0
20714 0
22617 0
25012 0
29424 0
37534 0
41269 0
42888 0
